000 000 000 000 -99 -99 -99 000 -99 -99 000 000 000 001 005 004 000 000 002 003 002 002 001 002 001 005 005 009 011 009 013
000 -99 000 000 000 000 000 000 -99 -99 000 000 000 001 005 004 001 000 001 001 002 004 003 002 003 003 006 008 010 015 018
000 000 000 000 000 000 000 000 000 -99 -99 000 000 000 002 001 000 000 000 002 003 004 004 003 003 004 007 015 017 012 033
000 -99 000 000 000 000 000 000 000 000 000 000 000 000 000 000 000 000 001 001 004 006 004 005 004 004 008 013 014 020 043
000 000 000 000 000 000 000 000 000 000 000 000 000 000 000 000 000 000 001 001 003 008 006 007 005 004 008 013 024 034 072
000 000 000 000 000 000 000 000 000 000 000 000 000 000 000 000 000 000 001 001 002 004 008 006 009 015 010 019 028 048 085
000 000 000 000 000 000 000 000 000 000 000 000 000 000 000 000 000 000 001 002 003 003 007 007 008 011 014 019 024 035 072
000 000 000 000 000 000 000 000 000 000 000 000 000 000 000 000 000 001 000 001 001 003 002 004 006 009 016 019 021 028 047
000 000 000 000 000 000 000 000 000 000 000 000 001 000 000 000 000 003 000 000 001 002 001 003 003 009 006 014 012 019 028
000 000 000 000 000 000 000 001 000 000 000 001 001 001 000 000 000 001 000 000 000 001 000 000 002 004 011 018 020 026 023
000 000 000 000 000 000 001 003 002 002 001 001 001 001 001 000 000 000 000 000 000 000 000 000 002 006 017 030 021 021 018
000 000 000 001 001 001 001 005 009 007 002 001 002 002 001 000 000 000 000 000 000 000 000 000 001 007 010 024 020 016 018
000 000 001 001 002 001 002 010 037 007 002 001 003 001 002 001 001 000 000 000 000 000 000 000 001 002 008 025 023 013 021
000 002 004 003 002 001 005 010 020 015 001 002 002 002 002 001 001 000 001 000 000 000 000 000 001 001 004 011 017 011 017
000 004 011 007 003 001 012 017 019 006 001 004 002 002 003 002 002 003 001 001 000 000 000 000 001 002 005 010 013 019 019
001 008 018 014 005 013 025 048 031 008 003 004 002 002 003 004 004 003 002 002 000 000 000 000 000 002 005 005 008 018 025
005 020 047 026 012 016 021 098 087 016 009 006 004 003 006 010 012 008 017 009 003 001 001 000 000 001 002 002 004 012 030
003 024 017 030 009 010 012 061 260 123 060 055 031 006 014 020 035 030 046 024 004 001 002 001 000 001 002 002 005 013 030
000 004 003 013 005 008 013 054 123 096 129 094 080 027 034 039 048 050 051 047 008 004 003 002 001 001 001 004 010 021 039
000 000 001 002 004 011 024 041 087 092 098 107 123 058 068 065 048 030 050 028 006 003 003 007 002 001 003 006 016 034 052
000 000 002 003 004 010 021 039 062 083 083 094 111 051 058 055 061 023 040 020 008 005 006 005 002 002 002 007 017 037 046
000 000 001 003 005 009 012 039 052 069 072 065 071 034 033 041 053 016 031 023 010 006 006 005 002 002 002 005 015 031 041
000 000 001 003 004 008 011 035 041 058 047 048 048 016 024 031 024 008 016 033 027 019 012 005 002 002 002 004 007 017 022
000 000 000 001 003 004 009 024 033 035 019 017 014 005 007 009 007 005 006 022 043 062 034 012 004 002 003 004 004 009 006
000 000 000 000 001 002 017 011 016 013 009 010 005 002 004 006 002 003 002 006 028 061 058 037 010 004 003 003 003 007 003
000 -99 000 000 000 000 001 001 002 004 005 005 001 001 002 003 001 002 000 001 016 048 069 056 016 008 -99 -99 -99 002 001
000 000 -99 000 000 000 000 000 000 001 001 001 000 000 000 001 000 001 000 000 001 003 012 040 069 029 -99 -99 -99 002 002
000 000 -99 000 000 000 000 000 000 000 000 000 000 000 000 000 000 000 000 000 000 000 006 030 029 014 003 002 001 002 003
000 000 -99 -99 000 000 000 000 000 000 000 000 000 000 000 000 000 000 000 000 000 000 -99 008 015 002 002 001 000 001 004
-99 000 000 000 000 000 000 000 000 000 -99 -99 -99 000 000 000 000 000 000 000 000 000 -99 001 002 001 001 001 000 001 004
-99 000 000 -99 000 000 000 000 000 000 -99 -99 -99 000 000 000 000 000 000 000 -99 000 -99 000 001 000 001 000 000 -99 -99
000 000 000 000 -99 000 000 000 000 -99 -99 -99 -99 -99 000 000 000 000 000 -99 000 000 -99 000 000 000 -99 -99 000 -99 -99
000 000 000 000 000 000 000 000 000 -99 -99 -99 -99 000 000 000 000 000 000 -99 000 000 -99 000 000 000 -99 000 000 -99 000
000 000 000 000 000 000 000 000 000 -99 -99 -99 -99 000 000 000 000 000 000 -99 000 000 -99 000 000 -99 -99 000 000 -99 000
-99 000 -99 -99 000 000 000 000 000 -99 -99 -99 -99 000 000 000 000 000 -99 -99 000 -99 -99 000 000 000 000 000 000 -99 000
-99 000 -99 -99 000 000 -99 000 000 000 -99 -99 -99 -99 000 000 000 000 000 -99 000 -99 -99 -99 000 000 000 000 -99 -99 000
000 000 -99 000 000 -99 -99 000 000 000 -99 -99 -99 000 000 000 000 000 000 -99 -99 -99 -99 000 000 000 000 000 -99 -99 000
000 000 -99 000 000 -99 -99 000 000 -99 -99 -99 000 000 000 000 000 000 000 -99 000 000 -99 000 000 000 000 -99 -99 -99 -99
000 000 -99 -99 000 -99 -99 -99 -99 -99 -99 -99 000 000 000 000 000 000 -99 -99 000 000 000 000 000 -99 -99 -99 -99 -99 -99
000 -99 -99 000 -99 -99 -99 -99 -99 -99 -99 -99 000 000 000 000 000 000 -99 000 000 000 000 000 -99 -99 -99 -99 -99 -99 000
000 -99 -99 -99 -99 -99 -99 -99 -99 -99 -99 000 000 000 000 000 -99 -99 -99 000 000 000 000 000 -99 -99 -99 -99 -99 -99 000
000 000 -99 -99 -99 -99 -99 -99 -99 -99 -99 -99 000 000 000 -99 -99 -99 -99 000 000 -99 000 -99 -99 -99 -99 -99 -99 000 000
-99 -99 -99 -99 -99 -99 -99 -99 -99 -99 000 000 -99 -99 -99 -99 -99 -99 -99 000 000 -99 -99 -99 -99 -99 -99 -99 -99 -99 -99
-99 -99 -99 -99 -99 -99 000 000 -99 -99 -99 -99 -99 -99 000 000 -99 -99 000 000 000 -99 -99 -99 000 000 -99 -99 -99 -99 -99
-99 -99 -99 -99 -99 -99 000 000 -99 -99 -99 -99 -99 -99 000 000 -99 -99 000 000 000 -99 -99 000 000 -99 -99 -99 -99 -99 -99
-99 -99 -99 -99 -99 -99 -99 -99 -99 -99 -99 -99 -99 -99 -99 -99 -99 000 000 000 -99 -99 -99 000 000 -99 -99 000 -99 -99 -99
-99 -99 -99 -99 -99 -99 -99 -99 -99 -99 -99 -99 -99 -99 -99 -99 -99 -99 000 000 -99 -99 -99 000 -99 -99 000 -99 -99 -99 -99
-99 -99 -99 -99 -99 -99 -99 -99 -99 -99 -99 -99 -99 -99 -99 -99 -99 -99 000 -99 000 000 -99 000 -99 -99 000 -99 000 -99 -99
-99 -99 -99 -99 -99 -99 -99 -99 -99 -99 -99 -99 -99 -99 -99 -99 -99 -99 -99 -99 -99 000 000 -99 -99 000 000 000 000 -99 -99
-99 -99 -99 -99 -99 -99 -99 -99 -99 -99 -99 -99 -99 -99 -99 -99 -99 -99 -99 -99 -99 000 -99 -99 -99 000 000 000 000 -99 -99
-99 -99 -99 -99 -99 -99 -99 -99 -99 -99 -99 -99 -99 -99 -99 -99 -99 -99 -99 -99 000 000 -99 -99 -99 000 000 000 000 -99 -99
-99 -99 -99 -99 -99 -99 -99 -99 -99 -99 -99 -99 -99 -99 -99 -99 -99 -99 -99 000 -99 -99 -99 -99 -99 000 -99 -99 -99 -99 -99
-99 -99 -99 -99 -99 -99 -99 -99 -99 -99 -99 -99 -99 -99 -99 -99 -99 -99 -99 000 -99 -99 -99 -99 -99 -99 -99 -99 -99 -99 -99
-99 -99 -99 -99 -99 -99 -99 -99 -99 -99 -99 -99 -99 -99 -99 -99 -99 -99 000 -99 -99 -99 -99 -99 -99 -99 -99 -99 -99 -99 -99
-99 -99 -99 -99 -99 -99 -99 -99 -99 -99 -99 -99 -99 -99 -99 -99 -99 -99 -99 -99 -99 -99 -99 -99 -99 -99 -99 -99 -99 -99 -99
